c --- [ banner ] -------------------------------------------------------------
c 
c CaDiCaL Radically Simplified CDCL SAT Solver
c Copyright (c) 2016-2021 A. Biere, M. Fleury, N. Froleyks
c 
c Version 1.5.2 ca9bff05c11bde5eae4912f9932871d1527e61d8
c g++ (GCC) 9.3.0 -Wall -Wextra -O3 -DNDEBUG
c Sun May 1 02:23:23 EDT 2022 Linux gra-login1 3.10.0-1160.59.1.el7.x86_64 x86_64
c 
c --- [ limit ] --------------------------------------------------------------
c 
c setting conflict limit to 200000 conflicts (due to '200000')
c 
c --- [ parsing input ] ------------------------------------------------------
c 
c reading DIMACS file from '26.cubes816.adj'
c opening file to read '26.cubes816.adj'
c found 'p cnf 5320 924214' header
c parsed 924214 clauses in 7.93 seconds process time
c closing file '26.cubes816.adj'
c after reading 686668143 bytes 654.9 MB
c 
c --- [ options ] ------------------------------------------------------------
c 
c all options are set to their default value
c 
c --- [ solving ] ------------------------------------------------------------
c 
c time measured in process time since initialization
c 
c  seconds   reductions  redundant  irredundant
c          MB    restarts       trail      variables
c           level   conflicts       glue        remaining
c 
c *  7.94 690  0 0   0    0    0  0% 0 923580 4032 76%
c {  8.58 728  0 0   0    0    0  0% 0 923580 4032 76%
c i  9.65 749 76 0   1   61   58 47% 11 923580 4031 76%
c i  9.76 750 73 0   1   67   61 45% 10 923580 4028 76%
c i  9.77 750 72 0   1   68   61 45% 10 923580 4015 75%
c i 11.06 767 93 0  11  157  131 44% 26 923580 4010 75%
c i 11.74 770 94 0  16  172  144 44% 26 923580 4008 75%
c - 15.49 742 86 1  33  300  225 43% 26 421427 4008 75%
c i 16.51 744 83 1  40  379  296 45% 26 421427 4007 75%
c i 16.70 745 83 1  41  396  311 45% 26 421427 4006 75%
c i 17.02 746 83 1  43  421  327 45% 26 421427 4005 75%
c i 17.08 746 84 1  43  423  328 45% 26 421427 4004 75%
c i 17.77 746 91 1  54  477  371 46% 31 421427 4003 75%
c i 18.32 747 93 1  62  506  393 46% 32 421427 4001 75%
c i 18.34 747 94 1  64  512  397 46% 33 421427 4000 75%
c i 18.43 747 94 1  68  523  405 46% 33 421427 3999 75%
c i 19.19 747 68 1  73  765  450 43% 25 421427 3998 75%
c i 19.79 748 66 1  73  845  519 43% 25 421427 3997 75%
c i 19.95 748 65 1  73  899  560 44% 25 421427 3996 75%
c i 20.26 748 61 1  73  981  616 45% 24 421427 3995 75%
c 
c  seconds   reductions  redundant   irredundant
c          MB    restarts       trail       variables
c           level   conflicts       glue         remaining
c 
c i 20.27 748 61 1  73  982  616 45% 24 421427 3994 75%
c } 20.42 748 61 1  73 1001  635 45% 23 421427 3994 75%
c [ 20.42 748  0 1  73 1001  635  0% 0 421427 3994 75%
c O 20.42 748  0 1  73 1002  635 25% 0 421427 3994 75%
c i 20.42 748  0 1  73 1002  635 25% 0 421427 3972 75%
c i 20.44 748  1 1  73 1007  638 29% 1 421427 3914 74%
c i 20.44 748  1 1  73 1009  639 29% 1 421427 3871 73%
c i 20.65 749  6 1  73 1017  645 36% 3 421427 3870 73%
c i 20.76 749 12 1  73 1031  657 44% 8 421427 3869 73%
c i 21.15 749 27 1  73 1185  775 55% 22 421427 3868 73%
c i 21.24 749 27 1  73 1257  823 56% 21 421427 3867 73%
c i 21.26 750 27 1  73 1273  833 56% 21 421427 3866 73%
c - 21.98 879 27 2  73 1275  725 56% 21 419997 3866 73%
c i 22.09 858 27 2  73 1279  728 55% 21 419997 3865 73%
c i 22.30 858 27 2  73 1321  760 55% 21 419997 3864 73%
c i 22.56 858 25 2  73 1511  895 56% 20 419997 3863 73%
c i 22.61 858 25 2  73 1556  931 56% 20 419997 3862 73%
c i 22.66 858 25 2  73 1602  960 55% 20 419997 3861 73%
c i 22.84 858 25 2  73 1737 1060 56% 20 419997 3860 73%
c i 22.92 858 25 2  73 1831 1127 55% 20 419997 3859 73%
c 
c  seconds   reductions  redundant   irredundant
c          MB    restarts       trail       variables
c           level   conflicts       glue         remaining
c 
c i 22.92 858 25 2  73 1833 1128 55% 20 419997 3858 73%
c - 24.37 855 25 3  74 2738 1407 55% 21 419973 3858 73%
c i 25.05 855 25 3  74 2891 1498 40% 20 419973 3857 72%
c ] 25.17 855 25 3  74 3002 1577 40% 21 419973 3857 72%
c { 25.17 855 61 3  74 3002 1577 62% 23 419973 3857 72%
c F 25.17 855 61 3  74 3003 1577 62% 23 419973 3857 72%
c i 25.17 855 61 3  74 3003 1577 62% 23 419973 3856 72%
c i 25.44 855 59 3  74 3046 1619 61% 23 419973 3855 72%
c i 25.46 855 59 3  74 3051 1623 60% 23 419973 3854 72%
c i 25.51 855 59 3  74 3061 1632 60% 23 419973 3853 72%
c i 25.62 855 58 3  74 3088 1655 60% 23 419973 3852 72%
c i 30.18 855 54 3 137 4068 2497 47% 24 419973 3851 72%
c - 31.08 853 46 4 137 4686 2202 45% 22 419952 3851 72%
c 2 31.97 853 43 4 137 5001 3955 44% 22 419858 3844 72%
c p 35.09 853 43 4 137 5001 7707 44% 22 419858 3809 72%
c d 35.63 853 43 4 137 5001 7510 44% 22 419754 3807 72%
c # 37.86 853 40 4 182 6004 8279 42% 21 419754 3807 72%
c } 42.52 853 41 4 282 7002 9058 41% 22 419754 3807 72%
c [ 42.52 853 25 4 282 7002 9058 40% 21 419754 3807 72%
c - 43.00 848 25 5 283 7120 3193 40% 21 419754 3807 72%
c 
c  seconds   reductions   redundant   irredundant
c          MB    restarts        trail       variables
c           level    conflicts       glue         remaining
c 
c I 45.59 848 23 5 284 10006 4798 38% 19 419754 3807 72%
c - 46.14 848 23 6 284 10041 3170 38% 20 419754 3807 72%
c - 50.36 848 32 7 287 13450 3889 37% 27 419754 3807 72%
c 2 51.72 848 34 7 287 15001 6523 38% 29 419753 3807 72%
c p 53.79 848 34 7 287 15001 10248 38% 29 419753 3807 72%
c ] 53.92 848 34 7 287 15002 10249 38% 29 419753 3807 72%
c { 53.92 848 41 7 287 15002 10249 41% 22 419753 3807 72%
c B 54.16 848 41 7 287 15010 10257 41% 22 419753 3807 72%
c s 57.12 848 40 7 346 15681 10500 40% 22 417920 3807 72%
c v 66.93 848 40 7 346 15681 10500 40% 22 417779 3807 72%
c t 67.14 848 40 7 346 15681 10485 40% 22 417732 3807 72%
c e 68.20 850 40 7 346 15681 6915 40% 22 413069 1248 23%
c s 68.34 850 40 7 346 15681 6915 40% 22 412430 1248 23%
c - 72.85 849 35 8 348 17347 4760 52% 20 412430 1248 23%
c W 86.41 849 39 8 803 21011 7747 53% 22 412430 1248 23%
c - 90.10 850 40 9 941 21709 5928 53% 23 412430 1248 23%
c - 95.04 850 35 10 1007 26559 6326 55% 22 412430 1248 23%
c F 95.87 850 34 10 1037 28013 7250 55% 21 412430 1248 23%
c d 104.42 850 34 10 1199 30001 8936 55% 22 397660 1247 23%
c p 106.67 850 34 10 1199 30001 11827 55% 22 397660 1246 23%
c 
c  seconds    reductions      redundant   irredundant
c           MB     restarts          trail       variables
c            level      conflicts        glue         remaining
c 
c } 108.30 850 34 10 1250 31005 12530 55% 21 397660 1246 23%
c [ 108.30 850 34 10 1250 31005 12530 116% 29 397660 1246 23%
c - 109.04 844 33 11 1250 31890 7196 110% 28 397657 1246 23%
c B 110.48 844 30 11 1253 36014 9669 92% 26 397657 1246 23%
c - 112.20 844 31 12 1253 37648 7435 88% 26 397657 1246 23%
c ] 114.48 844 32 12 1256 40899 9880 82% 27 397657 1246 23%
c 1 114.48 844 32 12 1256 40899 9880 82% 27 397657 1246 23%
c 
c --- [ writing output ] -----------------------------------------------------
c 
c writing simplified CNF to DIMACS file 'simp/26.cubes816.adj.simp1'
c * 114.48 844 32 12 1256 40899 9880 82% 27 397657 1246 23%
c opening file to write 'simp/26.cubes816.adj.simp1'
c writing 'p cnf 5320 397657' header
c closing file 'simp/26.cubes816.adj.simp1'
c after writing 162700819 bytes 155.2 MB
c wrote 397657 clauses in 1.01 seconds process time
c 
c --- [ writing extension ] --------------------------------------------------
c 
c writing extension stack to 'simp/26.cubes816.adj.ext1'
c opening file to write 'simp/26.cubes816.adj.ext1'
c closing file 'simp/26.cubes816.adj.ext1'
c after writing 162541 bytes 0.2 MB
c wrote 7213 witnesses in 0.00 seconds process time
c 
c --- [ result ] -------------------------------------------------------------
c 
s SATISFIABLE
c 
c --- [ run-time profiling ] -------------------------------------------------
c 
c process time taken by individual solving procedures
c (percentage relative to process time for solving)
c 
c        85.40   80.16% search
c        64.17   60.23% unstable
c        21.14   19.84% simplify
c        20.13   18.89% stable
c         9.97    9.35% vivify
c         7.93    7.45% parse
c         7.36    6.91% probe
c         1.97    1.85% elim
c         0.64    0.60% lucky
c         0.46    0.43% walk
c         0.28    0.27% subsume
c         0.18    0.17% ternary
c   =================================
c       106.55   92.26% solve
c 
c last line shows process time for solving
c (percentage relative to total process time)
c 
c --- [ statistics ] ---------------------------------------------------------
c 
c chronological:              8368        20.46 %  of conflicts
c conflicts:                 40899       383.86    per second
c decisions:                129686      1217.18    per second
c eliminated:                 2559        48.10 %  of all variables
c fixed:                      1505        28.29 %  of all variables
c learned:                   39948        97.67 %  per conflict
c learned_lits:            6588625       100.00 %  learned literals
c minimized:                     0         0.00 %  learned literals
c shrunken:                3921807        59.52 %  learned literals
c minishrunken:             495526         7.52 %  learned literals
c propagations:            5870738         0.06 M  per second
c reduced:                   18630        45.55 %  per conflict
c rephased:                      8      5112.38    interval
c restarts:                   1256        32.56    interval
c stabilizing:                   3        48.64 %  of conflicts
c substituted:                  10         0.19 %  of all variables
c subsumed:                  14169         0.68 %  of all clauses
c strengthened:               4239         0.20 %  of all clauses
c ternary:                    3911         0.43 %  of resolved
c vivified:                    144         0.01 %  of all clauses
c walked:                        1     40899.00    interval
c weakened:                   5708         3.16    average size
c 
c seconds are measured in process time for solving
c 
c --- [ resources ] ----------------------------------------------------------
c 
c total process time since initialization:       115.49    seconds
c total real time since initialization:          115.83    seconds
c maximum resident set size of process:         1017.68    MB
c 
c --- [ shutting down ] ------------------------------------------------------
c 
c exit 10
WARNING! DIMACS header mismatch: wrong number of variables.
============================[ Problem Statistics ]=============================
|                                                                             |
|  Number of variables:          3966                                         |
|  Number of clauses:          397659                                         |
|  Parse time:                   2.38 s                                       |
|  Simplification time:          0.07 s                                       |
|                                                                             |
============================[ Search Statistics ]====================================================
| Conflicts |          ORIGINAL         |          LEARNT          | Num Sols |      SUBGRAPHS      |
|           |    Vars  Clauses Literals |    Limit  Clauses Lit/Cl |          | Canonical Noncanon. |
=====================================================================================================
|       111 |    3889   397670 36314969 |     2000      111     70 |        0 |        25        11 |
|       266 |    3889   397675 36315045 |     2000      266     97 |        0 |        27        16 |
|       514 |    3889   397698 36315555 |     2000      514     92 |        0 |        28        39 |
|       956 |    3889   397803 36317730 |     2000      956     81 |        0 |        47       144 |
|      1466 |    3889   397807 36317785 |     2000     1466     83 |        0 |        58       148 |
|      2260 |    3889   397842 36318683 |     3602     1262     54 |        0 |       105       183 |
|      4004 |    3889   398447 36328335 |     3602     3006     63 |        0 |       205       788 |
|      5886 |    3889   398621 36332272 |     5007     3093     55 |        0 |       260       962 |
|      9036 |    3889   399209 36344210 |     6306     3742     45 |        0 |       342      1550 |
|     13143 |    3889   399472 36350721 |     7555     4698     39 |        0 |       444      1813 |
|     18984 |    3889   399547 36352807 |     8783     6767     55 |        0 |       515      1888 |
|     28079 |    3889   399993 36363749 |    11208     6487     34 |        0 |       632      2334 |
|     42154 |    3889   401094 36381699 |    13612     8766     44 |        0 |       843      3435 |
|     61712 |    3889   401191 36383621 |    16011    14123     56 |        0 |       913      3532 |
|     93691 |    3889   403978 36433424 |    20812    10503     23 |        0 |      1361      6319 |
|    142004 |    3889   408502 36506743 |    25613    13617     25 |        0 |      2263     10843 |
|    214319 |    3889   415133 36636355 |    31618    15937     27 |        0 |      3275     17474 |
|    313920 |    3889   416208 36658029 |    37616    30536     61 |        0 |      3719     18549 |
|    465132 |    3889   419631 36728014 |    46014    37546     64 |        0 |      4919     21972 |
|    689984 |    3889   422800 36792673 |    56816    33800     39 |        0 |      5713     25141 |
|   1026535 |    3889   426826 36882883 |    68818    59353     62 |        0 |      6753     29167 |
|   1528701 |    3889   430204 36959178 |    84407    67508     53 |        0 |      8197     32545 |
|   2312938 |    3889   466259 37819145 |   104822    52760     29 |        0 |     13422     68600 |
|   3550573 |    3889   581620 39862224 |   128812   128385     68 |        0 |     28341    183961 |
|   5671119 |    3889  1018755 46151741 |   163610   137729     46 |        0 |     75065    621096 |
|   8285634 |    3889  1108154 47612145 |   198434   136468     38 |        0 |     85066    710495 |
|  12134778 |    3889  1169623 48708841 |   240436   156614     40 |        0 |     93331    771964 |
|  17991624 |    3889  1344957 51950045 |   293223   157047     26 |        0 |    114405    947298 |
=====================================================================================================
Number of solutions   : 0
Canonical subgraphs   : 120765         (40 /sec)
          order  3    : 1              (250000 /sec)
          order  4    : 1              (500000 /sec)
          order  5    : 1              (250000 /sec)
          order  6    : 1              (55556 /sec)
          order  7    : 1              (7937 /sec)
          order  8    : 2              (1373 /sec)
          order  9    : 7              (362 /sec)
          order 10    : 31             (115 /sec)
          order 11    : 146            (39 /sec)
          order 12    : 1194           (29 /sec)
          order 13    : 17408          (45 /sec)
          order 14    : 56387          (42 /sec)
          order 15    : 37253          (38 /sec)
          order 16    : 6792           (33 /sec)
          order 17    : 1361           (26 /sec)
          order 18    : 102            (19 /sec)
          order 19    : 39             (24 /sec)
          order 20    : 38             (23 /sec)
          order 21    : 0              (-nan /sec)
Noncanonical subgraphs: 970570         (410 /sec)
          order  3    : 0              (-nan /sec)
          order  4    : 0              (-nan /sec)
          order  5    : 0              (-nan /sec)
          order  6    : 0              (-nan /sec)
          order  7    : 0              (-nan /sec)
          order  8    : 0              (-nan /sec)
          order  9    : 0              (-nan /sec)
          order 10    : 0              (-nan /sec)
          order 11    : 0              (-nan /sec)
          order 12    : 0              (-nan /sec)
          order 13    : 42922          (3394 /sec)
          order 14    : 358672         (534 /sec)
          order 15    : 562170         (342 /sec)
          order 16    : 5972           (201 /sec)
          order 17    : 796            (101 /sec)
          order 18    : 0              (-nan /sec)
          order 19    : 0              (-nan /sec)
          order 20    : 0              (-nan /sec)
Canonicity checking   : 3047.66 s
Noncanonicity checking: 2368.25 s
Total canonicity time : 5415.9 s
database reductions   : 251
restarts              : 29179
conflicts             : 19478135       (1335 /sec)
decisions             : 25140079       (0.00 % random) (1724 /sec)
propagations          : 1340427875     (91900 /sec)
conflict literals     : 1921564366     (55.69 % deleted)
actual reward         : 0.171886
Memory used           : 803.00 MB
CPU time              : 14585.8 s

UNSATISFIABLE
